num_bands =   192  #num_bands = NBANDS of INCAR >= num_wann
num_wann =    168  #  number of wannier bands  
dis_win_min   = -7
dis_win_max   = 11.5
dis_froz_min  =  -0.8
dis_froz_max  =  11.5
#dis_num_iter  =  1000
num_iter      =  200 
num_print_cycles = 20   
spinors = .true.
write_xyz = .true.
write_hr =.true.
# projections   
begin projections
Te : p
Cr : s;d
end projections
begin unit_cell_cart
     7.0158106     0.0000000     0.0000000
    -3.5079053     6.0758702     0.0000000
     0.0000000     0.0000000    12.6260356
end unit_cell_cart

begin atoms_cart
Cr      -0.0000000     4.0505803     3.1565089
Cr       3.5079054     2.0252901     9.4695267
Cr       0.0000000     0.0000000     0.0000000
Cr       0.0000000     0.0000000     6.3130178
Cr      -0.0000000     4.0505803    12.5469984
Cr      -0.0000000     4.0505803     6.3920551
Cr       3.5079054     2.0252901     0.0790373
Cr       3.5079054     2.0252901     6.2339806
Te      -1.1787694     6.0515604     4.7783652
Te      -1.1435150     2.0292457     4.7783652
Te       2.3222845     4.0709343     4.7783652
Te      -2.3222844     4.0709343     1.5346527
Te       1.1787694     6.0515604     1.5346527
Te       1.1435150     2.0292457     1.5346527
Te       4.6866747     0.0243098     7.8476701
Te       4.6514204     4.0466245     7.8476701
Te       1.1856208     2.0049359     7.8476701
Te       5.8301898     2.0049359    11.0913834
Te       2.3291358     0.0243098    11.0913834
Te       2.3643903     4.0466245    11.0913834
end atoms_cart

mp_grid =     9     9     3

begin kpoints
      0.000000000000      0.000000000000      0.000000000000
      0.111111111111      0.000000000000      0.000000000000
      0.222222222222      0.000000000000      0.000000000000
      0.333333333333      0.000000000000      0.000000000000
      0.444444444444      0.000000000000      0.000000000000
     -0.444444444444      0.000000000000      0.000000000000
     -0.333333333333      0.000000000000      0.000000000000
     -0.222222222222      0.000000000000      0.000000000000
     -0.111111111111      0.000000000000      0.000000000000
      0.000000000000      0.111111111111      0.000000000000
      0.111111111111      0.111111111111      0.000000000000
      0.222222222222      0.111111111111      0.000000000000
      0.333333333333      0.111111111111      0.000000000000
      0.444444444444      0.111111111111      0.000000000000
     -0.444444444444      0.111111111111      0.000000000000
     -0.333333333333      0.111111111111      0.000000000000
     -0.222222222222      0.111111111111      0.000000000000
     -0.111111111111      0.111111111111      0.000000000000
      0.000000000000      0.222222222222      0.000000000000
      0.111111111111      0.222222222222      0.000000000000
      0.222222222222      0.222222222222      0.000000000000
      0.333333333333      0.222222222222      0.000000000000
      0.444444444444      0.222222222222      0.000000000000
     -0.444444444444      0.222222222222      0.000000000000
     -0.333333333333      0.222222222222      0.000000000000
     -0.222222222222      0.222222222222      0.000000000000
     -0.111111111111      0.222222222222      0.000000000000
      0.000000000000      0.333333333333      0.000000000000
      0.111111111111      0.333333333333      0.000000000000
      0.222222222222      0.333333333333      0.000000000000
      0.333333333333      0.333333333333      0.000000000000
      0.444444444444      0.333333333333      0.000000000000
     -0.444444444444      0.333333333333      0.000000000000
     -0.333333333333      0.333333333333      0.000000000000
     -0.222222222222      0.333333333333      0.000000000000
     -0.111111111111      0.333333333333      0.000000000000
      0.000000000000      0.444444444444      0.000000000000
      0.111111111111      0.444444444444      0.000000000000
      0.222222222222      0.444444444444      0.000000000000
      0.333333333333      0.444444444444      0.000000000000
      0.444444444444      0.444444444444      0.000000000000
     -0.444444444444      0.444444444444      0.000000000000
     -0.333333333333      0.444444444444      0.000000000000
     -0.222222222222      0.444444444444      0.000000000000
     -0.111111111111      0.444444444444      0.000000000000
      0.000000000000     -0.444444444444      0.000000000000
      0.111111111111     -0.444444444444      0.000000000000
      0.222222222222     -0.444444444444      0.000000000000
      0.333333333333     -0.444444444444      0.000000000000
      0.444444444444     -0.444444444444      0.000000000000
     -0.444444444444     -0.444444444444      0.000000000000
     -0.333333333333     -0.444444444444      0.000000000000
     -0.222222222222     -0.444444444444      0.000000000000
     -0.111111111111     -0.444444444444      0.000000000000
      0.000000000000     -0.333333333333      0.000000000000
      0.111111111111     -0.333333333333      0.000000000000
      0.222222222222     -0.333333333333      0.000000000000
      0.333333333333     -0.333333333333      0.000000000000
      0.444444444444     -0.333333333333      0.000000000000
     -0.444444444444     -0.333333333333      0.000000000000
     -0.333333333333     -0.333333333333      0.000000000000
     -0.222222222222     -0.333333333333      0.000000000000
     -0.111111111111     -0.333333333333      0.000000000000
      0.000000000000     -0.222222222222      0.000000000000
      0.111111111111     -0.222222222222      0.000000000000
      0.222222222222     -0.222222222222      0.000000000000
      0.333333333333     -0.222222222222      0.000000000000
      0.444444444444     -0.222222222222      0.000000000000
     -0.444444444444     -0.222222222222      0.000000000000
     -0.333333333333     -0.222222222222      0.000000000000
     -0.222222222222     -0.222222222222      0.000000000000
     -0.111111111111     -0.222222222222      0.000000000000
      0.000000000000     -0.111111111111      0.000000000000
      0.111111111111     -0.111111111111      0.000000000000
      0.222222222222     -0.111111111111      0.000000000000
      0.333333333333     -0.111111111111      0.000000000000
      0.444444444444     -0.111111111111      0.000000000000
     -0.444444444444     -0.111111111111      0.000000000000
     -0.333333333333     -0.111111111111      0.000000000000
     -0.222222222222     -0.111111111111      0.000000000000
     -0.111111111111     -0.111111111111      0.000000000000
      0.000000000000      0.000000000000      0.333333333333
      0.111111111111      0.000000000000      0.333333333333
      0.222222222222      0.000000000000      0.333333333333
      0.333333333333      0.000000000000      0.333333333333
      0.444444444444      0.000000000000      0.333333333333
     -0.444444444444      0.000000000000      0.333333333333
     -0.333333333333      0.000000000000      0.333333333333
     -0.222222222222      0.000000000000      0.333333333333
     -0.111111111111      0.000000000000      0.333333333333
      0.000000000000      0.111111111111      0.333333333333
      0.111111111111      0.111111111111      0.333333333333
      0.222222222222      0.111111111111      0.333333333333
      0.333333333333      0.111111111111      0.333333333333
      0.444444444444      0.111111111111      0.333333333333
     -0.444444444444      0.111111111111      0.333333333333
     -0.333333333333      0.111111111111      0.333333333333
     -0.222222222222      0.111111111111      0.333333333333
     -0.111111111111      0.111111111111      0.333333333333
      0.000000000000      0.222222222222      0.333333333333
      0.111111111111      0.222222222222      0.333333333333
      0.222222222222      0.222222222222      0.333333333333
      0.333333333333      0.222222222222      0.333333333333
      0.444444444444      0.222222222222      0.333333333333
     -0.444444444444      0.222222222222      0.333333333333
     -0.333333333333      0.222222222222      0.333333333333
     -0.222222222222      0.222222222222      0.333333333333
     -0.111111111111      0.222222222222      0.333333333333
      0.000000000000      0.333333333333      0.333333333333
      0.111111111111      0.333333333333      0.333333333333
      0.222222222222      0.333333333333      0.333333333333
      0.333333333333      0.333333333333      0.333333333333
      0.444444444444      0.333333333333      0.333333333333
     -0.444444444444      0.333333333333      0.333333333333
     -0.333333333333      0.333333333333      0.333333333333
     -0.222222222222      0.333333333333      0.333333333333
     -0.111111111111      0.333333333333      0.333333333333
      0.000000000000      0.444444444444      0.333333333333
      0.111111111111      0.444444444444      0.333333333333
      0.222222222222      0.444444444444      0.333333333333
      0.333333333333      0.444444444444      0.333333333333
      0.444444444444      0.444444444444      0.333333333333
     -0.444444444444      0.444444444444      0.333333333333
     -0.333333333333      0.444444444444      0.333333333333
     -0.222222222222      0.444444444444      0.333333333333
     -0.111111111111      0.444444444444      0.333333333333
      0.000000000000     -0.444444444444      0.333333333333
      0.111111111111     -0.444444444444      0.333333333333
      0.222222222222     -0.444444444444      0.333333333333
      0.333333333333     -0.444444444444      0.333333333333
      0.444444444444     -0.444444444444      0.333333333333
     -0.444444444444     -0.444444444444      0.333333333333
     -0.333333333333     -0.444444444444      0.333333333333
     -0.222222222222     -0.444444444444      0.333333333333
     -0.111111111111     -0.444444444444      0.333333333333
      0.000000000000     -0.333333333333      0.333333333333
      0.111111111111     -0.333333333333      0.333333333333
      0.222222222222     -0.333333333333      0.333333333333
      0.333333333333     -0.333333333333      0.333333333333
      0.444444444444     -0.333333333333      0.333333333333
     -0.444444444444     -0.333333333333      0.333333333333
     -0.333333333333     -0.333333333333      0.333333333333
     -0.222222222222     -0.333333333333      0.333333333333
     -0.111111111111     -0.333333333333      0.333333333333
      0.000000000000     -0.222222222222      0.333333333333
      0.111111111111     -0.222222222222      0.333333333333
      0.222222222222     -0.222222222222      0.333333333333
      0.333333333333     -0.222222222222      0.333333333333
      0.444444444444     -0.222222222222      0.333333333333
     -0.444444444444     -0.222222222222      0.333333333333
     -0.333333333333     -0.222222222222      0.333333333333
     -0.222222222222     -0.222222222222      0.333333333333
     -0.111111111111     -0.222222222222      0.333333333333
      0.000000000000     -0.111111111111      0.333333333333
      0.111111111111     -0.111111111111      0.333333333333
      0.222222222222     -0.111111111111      0.333333333333
      0.333333333333     -0.111111111111      0.333333333333
      0.444444444444     -0.111111111111      0.333333333333
     -0.444444444444     -0.111111111111      0.333333333333
     -0.333333333333     -0.111111111111      0.333333333333
     -0.222222222222     -0.111111111111      0.333333333333
     -0.111111111111     -0.111111111111      0.333333333333
      0.000000000000      0.000000000000     -0.333333333333
      0.111111111111      0.000000000000     -0.333333333333
      0.222222222222      0.000000000000     -0.333333333333
      0.333333333333      0.000000000000     -0.333333333333
      0.444444444444      0.000000000000     -0.333333333333
     -0.444444444444      0.000000000000     -0.333333333333
     -0.333333333333      0.000000000000     -0.333333333333
     -0.222222222222      0.000000000000     -0.333333333333
     -0.111111111111      0.000000000000     -0.333333333333
      0.000000000000      0.111111111111     -0.333333333333
      0.111111111111      0.111111111111     -0.333333333333
      0.222222222222      0.111111111111     -0.333333333333
      0.333333333333      0.111111111111     -0.333333333333
      0.444444444444      0.111111111111     -0.333333333333
     -0.444444444444      0.111111111111     -0.333333333333
     -0.333333333333      0.111111111111     -0.333333333333
     -0.222222222222      0.111111111111     -0.333333333333
     -0.111111111111      0.111111111111     -0.333333333333
      0.000000000000      0.222222222222     -0.333333333333
      0.111111111111      0.222222222222     -0.333333333333
      0.222222222222      0.222222222222     -0.333333333333
      0.333333333333      0.222222222222     -0.333333333333
      0.444444444444      0.222222222222     -0.333333333333
     -0.444444444444      0.222222222222     -0.333333333333
     -0.333333333333      0.222222222222     -0.333333333333
     -0.222222222222      0.222222222222     -0.333333333333
     -0.111111111111      0.222222222222     -0.333333333333
      0.000000000000      0.333333333333     -0.333333333333
      0.111111111111      0.333333333333     -0.333333333333
      0.222222222222      0.333333333333     -0.333333333333
      0.333333333333      0.333333333333     -0.333333333333
      0.444444444444      0.333333333333     -0.333333333333
     -0.444444444444      0.333333333333     -0.333333333333
     -0.333333333333      0.333333333333     -0.333333333333
     -0.222222222222      0.333333333333     -0.333333333333
     -0.111111111111      0.333333333333     -0.333333333333
      0.000000000000      0.444444444444     -0.333333333333
      0.111111111111      0.444444444444     -0.333333333333
      0.222222222222      0.444444444444     -0.333333333333
      0.333333333333      0.444444444444     -0.333333333333
      0.444444444444      0.444444444444     -0.333333333333
     -0.444444444444      0.444444444444     -0.333333333333
     -0.333333333333      0.444444444444     -0.333333333333
     -0.222222222222      0.444444444444     -0.333333333333
     -0.111111111111      0.444444444444     -0.333333333333
      0.000000000000     -0.444444444444     -0.333333333333
      0.111111111111     -0.444444444444     -0.333333333333
      0.222222222222     -0.444444444444     -0.333333333333
      0.333333333333     -0.444444444444     -0.333333333333
      0.444444444444     -0.444444444444     -0.333333333333
     -0.444444444444     -0.444444444444     -0.333333333333
     -0.333333333333     -0.444444444444     -0.333333333333
     -0.222222222222     -0.444444444444     -0.333333333333
     -0.111111111111     -0.444444444444     -0.333333333333
      0.000000000000     -0.333333333333     -0.333333333333
      0.111111111111     -0.333333333333     -0.333333333333
      0.222222222222     -0.333333333333     -0.333333333333
      0.333333333333     -0.333333333333     -0.333333333333
      0.444444444444     -0.333333333333     -0.333333333333
     -0.444444444444     -0.333333333333     -0.333333333333
     -0.333333333333     -0.333333333333     -0.333333333333
     -0.222222222222     -0.333333333333     -0.333333333333
     -0.111111111111     -0.333333333333     -0.333333333333
      0.000000000000     -0.222222222222     -0.333333333333
      0.111111111111     -0.222222222222     -0.333333333333
      0.222222222222     -0.222222222222     -0.333333333333
      0.333333333333     -0.222222222222     -0.333333333333
      0.444444444444     -0.222222222222     -0.333333333333
     -0.444444444444     -0.222222222222     -0.333333333333
     -0.333333333333     -0.222222222222     -0.333333333333
     -0.222222222222     -0.222222222222     -0.333333333333
     -0.111111111111     -0.222222222222     -0.333333333333
      0.000000000000     -0.111111111111     -0.333333333333
      0.111111111111     -0.111111111111     -0.333333333333
      0.222222222222     -0.111111111111     -0.333333333333
      0.333333333333     -0.111111111111     -0.333333333333
      0.444444444444     -0.111111111111     -0.333333333333
     -0.444444444444     -0.111111111111     -0.333333333333
     -0.333333333333     -0.111111111111     -0.333333333333
     -0.222222222222     -0.111111111111     -0.333333333333
     -0.111111111111     -0.111111111111     -0.333333333333
end kpoints
